99779 99764 47 994
99779 99764 47 995
99779 99764 47 996
99779 99764 47 997
99779 99764 47 998
99779 99764 62 999
99779 99764 47 1000
99779 99764 47 1001
99779 99764 47 1002
99779 99764 47 1003
99779 99764 47 1004
99779 99764 46 1005
99777 99763 32 1006
99779 99764 47 1007
99779 99764 46 1008
99779 99764 63 1009
99779 99764 47 1010
99779 99764 47 1011
99779 99764 47 1012
99779 99764 46 1013
99777 99763 47 1014
99779 99764 32 1015
99779 99764 46 1016
99779 99764 47 1017
99779 99764 47 1018
99779 99764 47 1019
99779 99764 47 1020
99779 99764 47 1021
99779 99764 47 1022
99779 99764 47 1023
